peakDumbCharging = 11100; 
Machine = anon_enum(16); 
machineSpeed = [3700,3700,3700,3700,3700,3700,3700,3700,3700,3700,3700,3700,3700,3700,3700,3700]; 
machineLoad = [3700,3700,3700,3700,3700,3700,3700,3700,3700,3700,3700,3700,3700,3700,3700,3700]; 
Car = anon_enum(9); 
demandCar = [2240,5720,11120,10200,11560,16800,2200,3240,7440]; 
arrivalCar = [72,69,60,55,52,50,49,48,44]; 
departureCar = [74,72,71,59,65,61,51,50,65]; 
